Test: fpga10_20_uns_rcr.cnf
Options: -no-inverting-opt -sym-var-bump
WARNING: for repeatability, setting FPU to use double precision
============================[ Problem Statistics ]=============================
|                                                                             |
|  Number of symmetries:           57                                         |
|  Number of invertingSyms:         0                                         |
|  Number of variables:           400                                         |
|  Number of clauses:            3840                                         |
|  Parse time:                   0.00 s                                       |
|                                                                             |
============================[ Search Statistics ]==============================
| Conflicts |          ORIGINAL         |          LEARNT          | Progress |
|           |    Vars  Clauses Literals |    Limit  Clauses Lit/Cl |          |
===============================================================================
|       100 |     400     3840     8000 |     1408      235     40 |  0.001 % |
|       250 |     400     3840     8000 |     1548      649     41 |  0.001 % |
|       475 |     400     3840     8000 |     1703     1151     45 |  0.001 % |
|       812 |     400     3840     8000 |     1874     1053     41 |  0.001 % |
|      1318 |     400     3840     8000 |     2061     1039     40 |  0.001 % |
|      2077 |     400     3840     8000 |     2267     1605     35 |  0.001 % |
===============================================================================
restarts              : 14
conflicts             : 2111           (31042 /sec)
symconflicts          : 387            (5691 /sec)
decisions             : 3821           (0.00 % random) (56188 /sec)
propagations          : 62450          (918328 /sec)
sympropagations       : 2729           (40130 /sec)
conflict literals     : 97090          (8.96 % deleted)
literals     : 97090          (8.96 % deleted)

HEURISTIC USAGES
random                : 0           
activity w/ lookahead : 0           
activity no lookahead : 0           
original sp           : 3821        
sym count             : 0           

Memory used           : 6.00 MB
CPU time              : 0.068004 s

UNSATISFIABLE
